<number of tasks>
50

<cycle time>
1000

<order strength>
0.198


<task times>
1 451
2 350
3 250
4 584
5 427
6 335
7 621
8 428
9 533
10 488
11 562
12 758
13 444
14 502
15 602
16 560
17 364
18 400
19 609
20 315
21 530
22 279
23 482
24 739
25 488
26 230
27 636
28 577
29 510
30 588
31 445
32 563
33 568
34 581
35 745
36 490
37 664
38 508
39 373
40 457
41 535
42 413
43 435
44 463
45 340
46 531
47 789
48 605
49 544
50 407

<precedence relations>
3,9
4,7
4,10
4,12
4,13
4,14
5,11
5,12
6,8
7,17
9,36
10,16
10,29
11,20
13,15
13,19
14,18
15,21
16,23
16,24
16,25
17,27
17,37
19,20
19,22
19,26
20,27
20,31
21,29
23,49
24,28
25,30
26,27
26,48
27,33
27,35
29,32
31,34
32,36
32,37
32,39
32,41
32,43
33,40
33,44
34,42
35,38
39,46
41,48
42,45
42,49
43,46
43,50
44,47

<end>
